14
0 11 37 47 85 4 73 95 62 80 92 65 84 71 
11 0 51 78 60 64 88 46 23 96 21 21 9 57 
37 51 0 92 42 85 1 10 86 47 43 40 39 93 
47 78 92 0 76 20 99 11 64 86 87 33 64 79 
85 60 42 76 0 22 91 100 10 60 96 64 92 59 
4 64 85 20 22 0 44 78 80 83 74 53 75 38 
73 88 1 99 91 44 0 65 33 85 51 15 19 97 
95 46 10 11 100 78 65 0 89 68 60 79 57 26 
62 23 86 64 10 80 33 89 0 73 32 28 15 76 
80 96 47 86 60 83 85 68 73 0 79 42 15 39 
92 21 43 87 96 74 51 60 32 79 0 77 54 2 
65 21 40 33 64 53 15 79 28 42 77 0 7 82 
84 9 39 64 92 75 19 57 15 15 54 7 0 38 
71 57 93 79 59 38 97 26 76 39 2 82 38 0 
RBBRBBRRBRBBRR
